
Gurobi 12.0.2 (win64) logging started Fri Jun  6 10:10:11 2025

Set parameter LogFile to value "C:\Ioana\_uni\honours\slp\algorithm\Main_files\results\others\prox_tubules_new\Task_010_Sample004_irr_gurobi.log"
Gurobi Optimizer version 12.0.2 build v12.0.2rc0 (win64 - Windows 11.0 (26100.2))

CPU model: Intel(R) Core(TM) Ultra 5 125H, instruction set [SSE2|AVX|AVX2]
Thread count: 14 physical cores, 18 logical processors, using up to 18 threads

Non-default parameters:
TimeLimit  2200

Optimize a model with 47658 rows, 34794 columns and 147841 nonzeros
Model fingerprint: 0x675babf6
Variable types: 17400 continuous, 17394 integer (17394 binary)
Coefficient statistics:
  Matrix range     [1e-04, 8e+04]
  Objective range  [1e-04, 3e+00]
  Bounds range     [1e+00, 1e+03]
  RHS range        [1e+00, 1e+00]
Presolve removed 31251 rows and 21835 columns
Presolve time: 0.33s
Presolved: 16407 rows, 12959 columns, 54589 nonzeros
Variable types: 6413 continuous, 6546 integer (6546 binary)

Root relaxation: objective 1.870165e-03, 4359 iterations, 0.33 seconds (0.65 work units)

    Nodes    |    Current Node    |     Objective Bounds      |     Work
 Expl Unexpl |  Obj  Depth IntInf | Incumbent    BestBd   Gap | It/Node Time

     0     0    0.00187    0    4          -    0.00187      -     -    0s
H    0     0                       1.8701648    0.00187   100%     -    0s
     0     0    0.98170    0    4    1.87016    0.98170  47.5%     -    1s
     0     0    0.99385    0    1    1.87016    0.99385  46.9%     -    1s
     0     0    0.99795    0    5    1.87016    0.99795  46.6%     -    1s

Explored 1 nodes (5828 simplex iterations) in 1.27 seconds (1.64 work units)
Thread count was 18 (of 18 available processors)

Solution count 1: 1.87016 

Optimal solution found (tolerance 1.00e-04)
Best objective 1.870164766729e+00, best bound 1.870164766729e+00, gap 0.0000%
